
Gurobi 10.0.1 (linux64) logging started Sun Nov 26 15:57:46 2023

Set parameter LogFile to value "ArtificialInstance/ExperimentV2/S2T5K2/AdRo/gurobi91.txt"
Gurobi Optimizer version 10.0.1 build v10.0.1rc0 (linux64)

CPU model: AMD EPYC 7H12 64-Core Processor, instruction set [SSE2|AVX|AVX2]
Thread count: 128 physical cores, 128 logical processors, using up to 32 threads

Academic license 656792 - for non-commercial use only - registered to b.___@student.vu.nl
Optimize a model with 8394 rows, 7930 columns and 30673 nonzeros
Model fingerprint: 0x79a59dd8
Variable types: 1 continuous, 7929 integer (7929 binary)
Coefficient statistics:
  Matrix range     [1e+00, 4e+01]
  Objective range  [1e+00, 2e+01]
  Bounds range     [1e+00, 1e+00]
  RHS range        [1e+00, 1e+00]
Presolve removed 1800 rows and 1807 columns
Presolve time: 0.14s
Presolved: 6594 rows, 6123 columns, 24470 nonzeros
Variable types: 1 continuous, 6122 integer (6122 binary)
Found heuristic solution: objective 241.5649416

Root relaxation: objective 6.650488e+01, 3869 iterations, 0.17 seconds (0.11 work units)

    Nodes    |    Current Node    |     Objective Bounds      |     Work
 Expl Unexpl |  Obj  Depth IntInf | Incumbent    BestBd   Gap | It/Node Time

     0     0   66.50488    0  389  241.56494   66.50488  72.5%     -    0s
H    0     0                      85.3664317   66.50488  22.1%     -    0s
H    0     0                      68.4751709   66.50488  2.88%     -    0s
     0     0   68.28441    0  429   68.47517   68.28441  0.28%     -    0s
     0     0     cutoff    0        68.47517   68.47517  0.00%     -    0s

Explored 1 nodes (6924 simplex iterations) in 0.79 seconds (0.46 work units)
Thread count was 32 (of 128 available processors)

Solution count 3: 68.4752 85.3664 241.565 

Optimal solution found (tolerance 1.00e-04)
Best objective 6.847517086491e+01, best bound 6.847517086491e+01, gap 0.0000%
